7969.0
[1, 0, 0, 0, 0, 1, 0, 0, 0, 0, 1, 0, 0, 1, 0, 1, 1, 0, 1, 1]
[15, 0, 19, 10, 13, 13, 5, 16, 15, 5, 5, 19, 18, 13, 13, 13, 13, 16, 5, 15, 0, 0, 10, 19, 10, 10, 15, 19, 19, 15, 5, 15, 19, 19, 15, 5, 13, 13, 10, 0, 0, 13, 13, 13, 16, 5, 5, 5, 5, 15, 15, 5, 0, 10, 10, 10, 0, 0, 18, 16, 13, 5, 5, 5, 15, 15, 10, 19, 15, 15, 15, 0, 0, 0, 10, 19, 19, 19, 19, 19, 19, 5, 16, 16, 13, 13, 18, 5, 16, 5, 13, 13, 18, 18, 18, 18, 13, 18, 18, 13]